--- Job or_report_1.5_mB_5e.gms Start 06/07/20 18:06:31 28.2.0 r750fa45 WEX-WEI x86 64bit/MS Windows
--- GAMS Parameters defined
    Input D:\Onedrive\Documents\GAMSStudio\or_report_1.5_model_B_multinode_trivial\5nodes\or_report_1.5_mB_5e.gms
    PageSize 0
    ScrDir D:\Onedrive\Documents\GAMSStudio\or_report_1.5_model_B_multinode_trivial\5nodes\225a\
    SysDir D:\GAMS\win64\28.2\
    LogOption 3
    ErrMsg 1
    ErrorLog 99
    IDE 1
    LstTitleLeftAligned 1
GAMS 28.2.0   Copyright (C) 1987-2019 GAMS Development. All rights reserved
Licensee: GAMS Development Corporation, USA              G871201/0000CA-ANY
          Free Demo, +1 202-342-0180, support@gams.com, www.gams.com DC0000
--- Starting compilation
--- or_report_1.5_mB_5e.gms(132) 3 Mb
--- call gdxdump or_report.1.5_mB_5e.gdx symb=cost CSVSetText format=csv header = "cost(iter)">> or_report.1.5_mB_5e_out_cost.csv
--- or_report_1.5_mB_5e.gms(133) 3 Mb
--- call gdxdump or_report.1.5_mB_5e.gdx symb=isfeasible CSVSetText format=csv header = "isfeasible(iter)">> or_report.1.5_mB_5e_out_isfeasible.csv
--- or_report_1.5_mB_5e.gms(134) 3 Mb
--- call gdxdump or_report.1.5_mB_5e.gdx symb=remain CSVSetText format=csv header ="remain(iter)">> or_report.1.5_mB_5e_out_remain.csv
--- or_report_1.5_mB_5e.gms(135) 3 Mb
--- call gdxdump or_report.1.5_mB_5e.gdx symb=remainrate CSVSetText format=csv header = "remainrate(iter)">> or_report.1.5_mB_5e_out_remainrate.csv
--- or_report_1.5_mB_5e.gms(136) 3 Mb
--- Starting execution: elapsed 0:00:00.131
--- or_report_1.5_mB_5e.gms(63) 4 Mb
--- Generating LP model demo_1
--- or_report_1.5_mB_5e.gms(93) 4 Mb
---   30 rows  26 columns  66 non-zeroes
--- Executing CPLEX: elapsed 0:00:00.137

IBM ILOG CPLEX   28.2.0 r750fa45 Released Aug 19, 2019 WEI x86 64bit/MS Window
Cplex 12.9.0.0

Reading data...
Starting Cplex...
Space for names approximately 0.00 Mb
Use option 'names no' to turn use of names off
CPXPARAM_Advance                                 0
CPXPARAM_Threads                                 1
CPXPARAM_Parallel                                1
CPXPARAM_Simplex_Limits_Iterations               2000000000
CPXPARAM_TimeLimit                               1000
CPXPARAM_Tune_TimeLimit                          200
Tried aggregator 1 time.
LP Presolve eliminated 27 rows and 14 columns.
Reduced LP has 3 rows, 12 columns, and 18 nonzeros.
Presolve time = 0.00 sec. (0.02 ticks)
Symmetry aggregator did 11 additional substitutions.
Initializing dual steep norms . . .

Iteration log . . .
Iteration:     1   Dual objective     =           367.346939

Dual crossover.
  Dual:  Fixed no variables.
  Primal:  Fixed no variables.
LP status(1): optimal
Cplex Time: 0.00sec (det. 0.03 ticks)

Optimal solution found.
Objective :         367.346939

--- Restarting execution
--- or_report_1.5_mB_5e.gms(93) 2 Mb
--- Reading solution for model demo_1
--- Executing after solve: elapsed 0:00:00.224
--- or_report_1.5_mB_5e.gms(102) 3 Mb
*** Status: Normal completion
--- Job or_report_1.5_mB_5e.gms Stop 06/07/20 18:06:31 elapsed 0:00:00.224
